proyfinal/src/viki/013/experimentInOfficeAgust.take6.output/51827843-cfad-464d-8a6d-5d67c470c032.als.dat
{'cnf.clauses': '118081',
 'cnf.totvars': '69608',
 'conflict literals': '59',
 'conflicts': '18',
 'decisions': '2071',
 'memused.mb': '15.41',
 'outcome': 'UNSAT',
 'propagations': '19040',
 'restarts': '1',
 'solver.msecs': 30,
 'task.msecs': 108}
