proyfinal/src/viki/013/experimentInOfficeAgust.take6.output/51827843-cfad-464d-8a6d-5d67c470c032.als.out
Reading from standard input... Use '--help' for help.
============================[ Problem Statistics ]=============================
|                                                                             |
|  Number of variables:         69608                                         |
|  Number of clauses:          118081                                         |
|  Parse time:                   0.02 s                                       |
|                                                                             |
============================[ Search Statistics ]==============================
| Conflicts |          ORIGINAL         |          LEARNT          | Progress |
|           |    Vars  Clauses Literals |    Limit  Clauses Lit/Cl |          |
===============================================================================
===============================================================================
restarts              : 1
conflicts             : 18             (589 /sec)
decisions             : 2071           (0.00 % random) (67766 /sec)
propagations          : 19040          (623016 /sec)
conflict literals     : 59             (0.00 % deleted)
Memory used           : 15.41 MB
CPU time              : 0.030561 s

UNSATISFIABLE
